1.lp
min: X1 + Y1 + X2 + Y2 + X3 + Y3 + X4 + Y4 + X5 + Y5 + X6 + Y6 + X7 + Y7 + X8 + Y8 + X9 + Y9 + X10 + Y10 + X11 + Y11;

X1 >= 15XD1 - 30;
X1 >= -15XD1 + 30;
Y1 >= 15YD1 - 120;
Y1 >= -15YD1 + 120;

X2 >= 8XD1 - 80;
X2 >= -8XD1 + 80;
Y2 >= 8YD1 -56;
Y2 >= -8YD1 + 56;

X3 >= 17XD1 - 17;
X3 >=  -17XD1 + 17;
Y3 >= 17YD1 - 51;
Y3 >=  -17YD1 + 51;

X4 >= 58XD1 - 348;
X4 >=  -58XD1 + 348;
Y4 >= 58YD1 - 232;
Y4 >=  -58YD1 + 232;

X5 >= 4XD1 - 32;
X5 >=  -4XD1 + 32;
Y5 >= 4YD1 - 8;
Y5 >=  -4YD1 + 8;

X6 >= 4XD2 - 8;
X6 >=  -4XD2 + 8;
Y6 >= 4YD2 - 32;
Y6 >=  -4YD2 + 32;

X7 >= 18XD2 - 180;
X7 >=  -18XD2 + 180;
Y7 >= 18YD2 - 126;
Y7 >=  -18YD2 + 126;

X8 >= 8XD2 - 8;
X8 >=  -8XD2 + 8;
Y8 >= 8YD2 - 24;
Y8 >=  -8YD2 + 24;

X9 >= 4XD2 - 24;
X9 >=  -4XD2 + 24;
Y9 >= 4YD2 - 16;
Y9 >=  -4YD2 + 16;

X10 >= 82XD2 - 656;
X10 >=  -82XD2 + 656;
Y10 >= 82YD2 - 164;
Y10 >=  -82YD2 + 164;

X11 >= 5XD1 - 5XD2;
X11 >=  -5XD1 + 5XD2;
Y11 >= 5YD1 - 5YD2;
Y11 >=  -5YD1 + 5YD2;
